results/gr_files/K.gr
p tw 25 40
3 4
16 17
12 13
21 22
22 23
8 9
17 21
8 18
17 18
9 17
13 14
15 23
6 20
16 22
18 19
7 19
4 5
5 6
5 9
14 15
23 24
9 10
14 24
5 21
1 2
10 11
19 20
6 7
15 16
24 25
13 25
3 11
20 21
4 10
2 3
11 12
1 13
2 12
1 25
7 8
